c Random Network
p max    10      20
n         1  s
n        10  t
a       1       7      17
a       4       3      41
a       2       1      26
a       6       2      14
a       6       4      30
a       2       8       1
a       1       9      24
a       9       1      28
a       5       1      32
a       3       1      42
a       7      10      43
a      10       7      22
a       8       1      21
a       4       5      26
a       3       5      37
a       1       2      23
a       6       7       1
a       9       6      44
a       2       3      12
a       4       6       2
